data/lp_files/pEFS/36_3.lp
\ Model foo
\ LP format - for model browsing. Use MPS format to capture full model detail.
Minimize
  z
Subject To
 allocateEach[1]: x[1,1] + x[2,1] = 1
 allocateEach[2]: x[1,2] + x[2,2] = 1
 allocateEach[3]: x[1,3] + x[2,3] = 1
 allocateEach[4]: x[1,4] + x[2,4] = 1
 allocateEach[5]: x[1,5] + x[2,5] = 1
 allocateEach[6]: x[1,6] + x[2,6] = 1
 allocateEach[7]: x[1,7] + x[2,7] = 1
 allocateEach[8]: x[1,8] + x[2,8] = 1
 allocateEach[9]: x[1,9] + x[2,9] = 1
 allocateEach[10]: x[1,10] + x[2,10] = 1
 allocateEach[11]: x[1,11] + x[2,11] = 1
 allocateEach[12]: x[1,12] + x[2,12] = 1
 allocateEach[13]: x[1,13] + x[2,13] = 1
 allocateEach[14]: x[1,14] + x[2,14] = 1
 allocateEach[15]: x[1,15] + x[2,15] = 1
 allocateEach[16]: x[1,16] + x[2,16] = 1
 allocateAllCash: cashProportion[1] + cashProportion[2] = 1
 findWorstP[1,2]: z + 0.0290242061879608 cashProportion[1]
   - 0.0290242061879608 cashProportion[2] + 0.00512277239217507 x[1,1]
   + 0.0253816683113717 x[1,2] + 0.1396064317640912 x[1,3]
   + 0.1276774830208394 x[1,4] + 0.0272537296104951 x[1,5]
   + 0.0394729204156266 x[1,6] + 0.0632872815928484 x[1,7]
   + 0.0391391420444651 x[1,8] + 0.121292157659488 x[1,9]
   + 0.0898444302548325 x[1,10] + 0.0811371683984443 x[1,11]
   + 0.0047309456086376 x[1,12] + 0.0940964764613688 x[1,13]
   + 0.00534045393858478 x[1,14] + 0.0177918383932199 x[1,15]
   + 0.0898008939455506 x[1,16] - 0.00512277239217507 x[2,1]
   - 0.0253816683113717 x[2,2] - 0.1396064317640912 x[2,3]
   - 0.1276774830208394 x[2,4] - 0.0272537296104951 x[2,5]
   - 0.0394729204156266 x[2,6] - 0.0632872815928484 x[2,7]
   - 0.0391391420444651 x[2,8] - 0.121292157659488 x[2,9]
   - 0.0898444302548325 x[2,10] - 0.0811371683984443 x[2,11]
   - 0.0047309456086376 x[2,12] - 0.0940964764613688 x[2,13]
   - 0.00534045393858478 x[2,14] - 0.0177918383932199 x[2,15]
   - 0.0898008939455506 x[2,16] >= 0
 findWorstP[2,1]: z - 0.0239744911414255 cashProportion[1]
   + 0.0239744911414255 cashProportion[2] - 0.0678957589125171 x[1,1]
   - 0.03380403250941 x[1,2] - 0.1017956893864928 x[1,3]
   - 0.0461269209561027 x[1,4] - 0.0851334180432021 x[1,5]
   - 0.1074177075591571 x[1,6] - 0.0833113567164537 x[1,7]
   - 0.0761909328474503 x[1,8] - 0.0653904245882381 x[1,9]
   - 0.032593320706768 x[1,10] - 0.0503224569058522 x[1,11]
   - 0.027378868883508 x[1,12] - 0.0937642348541152 x[1,13]
   - 0.0451919158015871 x[1,14] - 0.0381793771427202 x[1,15]
   - 0.0215290930450001 x[1,16] + 0.0678957589125171 x[2,1]
   + 0.03380403250941 x[2,2] + 0.1017956893864928 x[2,3]
   + 0.0461269209561027 x[2,4] + 0.0851334180432021 x[2,5]
   + 0.1074177075591571 x[2,6] + 0.0833113567164537 x[2,7]
   + 0.0761909328474503 x[2,8] + 0.0653904245882381 x[2,9]
   + 0.032593320706768 x[2,10] + 0.0503224569058522 x[2,11]
   + 0.027378868883508 x[2,12] + 0.0937642348541152 x[2,13]
   + 0.0451919158015871 x[2,14] + 0.0381793771427202 x[2,15]
   + 0.0215290930450001 x[2,16] >= 0
Bounds
 z <= 1
 -infinity <= cashProportion[1] <= 1
 -infinity <= cashProportion[2] <= 1
Binaries
 x[1,1] x[1,2] x[1,3] x[1,4] x[1,5] x[1,6] x[1,7] x[1,8] x[1,9] x[1,10]
 x[1,11] x[1,12] x[1,13] x[1,14] x[1,15] x[1,16] x[2,1] x[2,2] x[2,3]
 x[2,4] x[2,5] x[2,6] x[2,7] x[2,8] x[2,9] x[2,10] x[2,11] x[2,12] x[2,13]
 x[2,14] x[2,15] x[2,16]
End
