data/mps_files/pEFS/36_3.mps
NAME foo
ROWS
 N  OBJ
 E  allocateEach[1]
 E  allocateEach[2]
 E  allocateEach[3]
 E  allocateEach[4]
 E  allocateEach[5]
 E  allocateEach[6]
 E  allocateEach[7]
 E  allocateEach[8]
 E  allocateEach[9]
 E  allocateEach[10]
 E  allocateEach[11]
 E  allocateEach[12]
 E  allocateEach[13]
 E  allocateEach[14]
 E  allocateEach[15]
 E  allocateEach[16]
 E  allocateAllCash
 G  findWorstP[1,2]
 G  findWorstP[2,1]
COLUMNS
    z         OBJ       1
    z         findWorstP[1,2]  1
    z         findWorstP[2,1]  1
    cashProportion[1]  allocateAllCash  1
    cashProportion[1]  findWorstP[1,2]  2.9024206187960755e-02
    cashProportion[1]  findWorstP[2,1]  -2.3974491141425528e-02
    cashProportion[2]  allocateAllCash  1
    cashProportion[2]  findWorstP[1,2]  -2.9024206187960755e-02
    cashProportion[2]  findWorstP[2,1]  2.3974491141425528e-02
    MARKER    'MARKER'                 'INTORG'
    x[1,1]    allocateEach[1]  1
    x[1,1]    findWorstP[1,2]  5.1227723921750731e-03
    x[1,1]    findWorstP[2,1]  -6.7895758912517090e-02
    x[1,2]    allocateEach[2]  1
    x[1,2]    findWorstP[1,2]  2.5381668311371682e-02
    x[1,2]    findWorstP[2,1]  -3.3804032509409991e-02
    x[1,3]    allocateEach[3]  1
    x[1,3]    findWorstP[1,2]  1.3960643176409124e-01
    x[1,3]    findWorstP[2,1]  -1.0179568938649278e-01
    x[1,4]    allocateEach[4]  1
    x[1,4]    findWorstP[1,2]  1.2767748302083937e-01
    x[1,4]    findWorstP[2,1]  -4.6126920956102713e-02
    x[1,5]    allocateEach[5]  1
    x[1,5]    findWorstP[1,2]  2.7253729610495148e-02
    x[1,5]    findWorstP[2,1]  -8.5133418043202055e-02
    x[1,6]    allocateEach[6]  1
    x[1,6]    findWorstP[1,2]  3.9472920415626632e-02
    x[1,6]    findWorstP[2,1]  -1.0741770755915708e-01
    x[1,7]    allocateEach[7]  1
    x[1,7]    findWorstP[1,2]  6.3287281592848424e-02
    x[1,7]    findWorstP[2,1]  -0.0833113567164537
    x[1,8]    allocateEach[8]  1
    x[1,8]    findWorstP[1,2]  3.9139142044465079e-02
    x[1,8]    findWorstP[2,1]  -7.6190932847450335e-02
    x[1,9]    allocateEach[9]  1
    x[1,9]    findWorstP[1,2]  1.2129215765948799e-01
    x[1,9]    findWorstP[2,1]  -6.5390424588238127e-02
    x[1,10]   allocateEach[10]  1
    x[1,10]   findWorstP[1,2]  8.9844430254832519e-02
    x[1,10]   findWorstP[2,1]  -0.032593320706768
    x[1,11]   allocateEach[11]  1
    x[1,11]   findWorstP[1,2]  0.0811371683984443
    x[1,11]   findWorstP[2,1]  -5.0322456905852180e-02
    x[1,12]   allocateEach[12]  1
    x[1,12]   findWorstP[1,2]  4.7309456086376024e-03
    x[1,12]   findWorstP[2,1]  -2.7378868883507951e-02
    x[1,13]   allocateEach[13]  1
    x[1,13]   findWorstP[1,2]  9.4096476461368761e-02
    x[1,13]   findWorstP[2,1]  -9.3764234854115239e-02
    x[1,14]   allocateEach[14]  1
    x[1,14]   findWorstP[1,2]  5.3404539385847787e-03
    x[1,14]   findWorstP[2,1]  -4.5191915801587122e-02
    x[1,15]   allocateEach[15]  1
    x[1,15]   findWorstP[1,2]  1.7791838393219944e-02
    x[1,15]   findWorstP[2,1]  -3.8179377142720156e-02
    x[1,16]   allocateEach[16]  1
    x[1,16]   findWorstP[1,2]  8.9800893945550575e-02
    x[1,16]   findWorstP[2,1]  -2.1529093045000124e-02
    x[2,1]    allocateEach[1]  1
    x[2,1]    findWorstP[1,2]  -5.1227723921750731e-03
    x[2,1]    findWorstP[2,1]  6.7895758912517090e-02
    x[2,2]    allocateEach[2]  1
    x[2,2]    findWorstP[1,2]  -2.5381668311371682e-02
    x[2,2]    findWorstP[2,1]  3.3804032509409991e-02
    x[2,3]    allocateEach[3]  1
    x[2,3]    findWorstP[1,2]  -1.3960643176409124e-01
    x[2,3]    findWorstP[2,1]  1.0179568938649278e-01
    x[2,4]    allocateEach[4]  1
    x[2,4]    findWorstP[1,2]  -1.2767748302083937e-01
    x[2,4]    findWorstP[2,1]  4.6126920956102713e-02
    x[2,5]    allocateEach[5]  1
    x[2,5]    findWorstP[1,2]  -2.7253729610495148e-02
    x[2,5]    findWorstP[2,1]  8.5133418043202055e-02
    x[2,6]    allocateEach[6]  1
    x[2,6]    findWorstP[1,2]  -3.9472920415626632e-02
    x[2,6]    findWorstP[2,1]  1.0741770755915708e-01
    x[2,7]    allocateEach[7]  1
    x[2,7]    findWorstP[1,2]  -6.3287281592848424e-02
    x[2,7]    findWorstP[2,1]  0.0833113567164537
    x[2,8]    allocateEach[8]  1
    x[2,8]    findWorstP[1,2]  -3.9139142044465079e-02
    x[2,8]    findWorstP[2,1]  7.6190932847450335e-02
    x[2,9]    allocateEach[9]  1
    x[2,9]    findWorstP[1,2]  -1.2129215765948799e-01
    x[2,9]    findWorstP[2,1]  6.5390424588238127e-02
    x[2,10]   allocateEach[10]  1
    x[2,10]   findWorstP[1,2]  -8.9844430254832519e-02
    x[2,10]   findWorstP[2,1]  0.032593320706768
    x[2,11]   allocateEach[11]  1
    x[2,11]   findWorstP[1,2]  -0.0811371683984443
    x[2,11]   findWorstP[2,1]  5.0322456905852180e-02
    x[2,12]   allocateEach[12]  1
    x[2,12]   findWorstP[1,2]  -4.7309456086376024e-03
    x[2,12]   findWorstP[2,1]  2.7378868883507951e-02
    x[2,13]   allocateEach[13]  1
    x[2,13]   findWorstP[1,2]  -9.4096476461368761e-02
    x[2,13]   findWorstP[2,1]  9.3764234854115239e-02
    x[2,14]   allocateEach[14]  1
    x[2,14]   findWorstP[1,2]  -5.3404539385847787e-03
    x[2,14]   findWorstP[2,1]  4.5191915801587122e-02
    x[2,15]   allocateEach[15]  1
    x[2,15]   findWorstP[1,2]  -1.7791838393219944e-02
    x[2,15]   findWorstP[2,1]  3.8179377142720156e-02
    x[2,16]   allocateEach[16]  1
    x[2,16]   findWorstP[1,2]  -8.9800893945550575e-02
    x[2,16]   findWorstP[2,1]  2.1529093045000124e-02
    MARKER    'MARKER'                 'INTEND'
RHS
    RHS1      allocateEach[1]  1
    RHS1      allocateEach[2]  1
    RHS1      allocateEach[3]  1
    RHS1      allocateEach[4]  1
    RHS1      allocateEach[5]  1
    RHS1      allocateEach[6]  1
    RHS1      allocateEach[7]  1
    RHS1      allocateEach[8]  1
    RHS1      allocateEach[9]  1
    RHS1      allocateEach[10]  1
    RHS1      allocateEach[11]  1
    RHS1      allocateEach[12]  1
    RHS1      allocateEach[13]  1
    RHS1      allocateEach[14]  1
    RHS1      allocateEach[15]  1
    RHS1      allocateEach[16]  1
    RHS1      allocateAllCash  1
BOUNDS
 UP BND1      z         1
 MI BND1      cashProportion[1]
 UP BND1      cashProportion[1]  1
 MI BND1      cashProportion[2]
 UP BND1      cashProportion[2]  1
 BV BND1      x[1,1]  
 BV BND1      x[1,2]  
 BV BND1      x[1,3]  
 BV BND1      x[1,4]  
 BV BND1      x[1,5]  
 BV BND1      x[1,6]  
 BV BND1      x[1,7]  
 BV BND1      x[1,8]  
 BV BND1      x[1,9]  
 BV BND1      x[1,10] 
 BV BND1      x[1,11] 
 BV BND1      x[1,12] 
 BV BND1      x[1,13] 
 BV BND1      x[1,14] 
 BV BND1      x[1,15] 
 BV BND1      x[1,16] 
 BV BND1      x[2,1]  
 BV BND1      x[2,2]  
 BV BND1      x[2,3]  
 BV BND1      x[2,4]  
 BV BND1      x[2,5]  
 BV BND1      x[2,6]  
 BV BND1      x[2,7]  
 BV BND1      x[2,8]  
 BV BND1      x[2,9]  
 BV BND1      x[2,10] 
 BV BND1      x[2,11] 
 BV BND1      x[2,12] 
 BV BND1      x[2,13] 
 BV BND1      x[2,14] 
 BV BND1      x[2,15] 
 BV BND1      x[2,16] 
ENDATA
